50
99
0 1 14 11
0 2 14 11
0 3 14 11
0 4 14 11
0 5 14 11
0 6 14 11
0 7 14 11
0 8 14 11
0 9 14 11
0 10 14 11
0 11 14 11
0 12 14 11
0 13 14 11
0 14 14 11
0 15 14 11
0 16 14 11
0 17 14 11
0 18 14 11
0 19 14 11
0 20 14 11
0 21 14 11
0 22 14 11
0 23 14 11
0 24 14 11
0 25 14 11
0 26 14 11
0 27 14 11
0 28 14 11
0 29 14 11
0 30 14 11
0 31 14 11
0 32 14 11
0 33 14 11
0 34 14 11
0 35 14 11
0 36 14 11
0 37 14 11
0 38 14 11
0 39 14 11
0 40 14 11
0 41 14 11
0 42 14 11
0 43 14 11
0 44 14 11
0 45 14 11
0 46 14 11
0 47 14 11
0 48 14 9
0 49 14 11
1 2 3 0.5
1 3 3 0.5
1 4 4 1
1 5 4 1
1 6 2 1
1 7 3 8
1 8 3 8
1 9 3 8
1 10 3 8
1 11 3 8
1 12 3 8
1 13 3 8
1 14 3 8
1 15 3 8
1 16 3 8
1 17 3 8
1 18 3 8
1 19 3 8
1 20 3 8
1 21 3 8
1 22 3 8
1 23 3 8
1 24 3 8
1 25 3 8
1 26 3 8
1 27 3 8
1 28 3 8
1 29 3 8
1 30 3 8
1 31 3 8
1 32 3 8
1 33 3 8
1 34 3 8
1 35 3 8
1 36 3 8
1 37 3 8
1 38 3 8
1 39 3 8
1 40 3 8
1 41 3 8
1 42 3 8
1 43 3 8
1 44 3 8
1 45 3 8
1 46 3 8
1 47 3 8
1 48 14 9
1 49 3 8
2 3 5 0.5
2 4 5 0.5
2 5 5 0.5
2 6 5 0.5
2 7 3 8
2 8 3 8
2 9 3 8
2 10 3 8
2 11 3 8
2 12 3 8
2 13 3 8
2 14 3 8
2 15 3 8
2 16 3 8
2 17 3 8
2 18 3 8
2 19 3 8
2 20 3 8
2 21 3 8
2 22 3 8
2 23 3 8
2 24 3 8
2 25 3 8
2 26 3 8
2 27 3 8
2 28 3 8
2 29 3 8
2 30 3 8
2 31 3 8
2 32 3 8
2 33 3 8
2 34 3 8
2 35 3 8
2 36 3 8
2 37 3 8
2 38 3 8
2 39 3 8
2 40 3 8
2 41 3 8
2 42 3 8
2 43 3 8
2 44 3 8
2 45 3 8
2 46 3 8
2 47 3 8
2 48 14 9
2 49 3 8
3 4 8 0.5
3 5 8 0.5
3 6 8 0.5
3 7 3 9
3 8 3 9
3 9 3 9
3 10 3 9
3 11 3 9
3 12 3 9
3 13 3 9
3 14 3 9
3 15 3 9
3 16 3 9
3 17 3 9
3 18 3 9
3 19 3 9
3 20 3 9
3 21 3 9
3 22 3 9
3 23 3 9
3 24 3 9
3 25 3 9
3 26 3 9
3 27 3 9
3 28 3 9
3 29 3 9
3 30 11 9
3 31 11 9
3 32 11 9
3 33 11 9
3 34 11 9
3 35 11 9
3 36 11 9
3 37 11 9
3 38 11 9
3 39 11 9
3 40 11 9
3 41 11 9
3 42 11 9
3 43 11 9
3 44 11 9
3 45 11 9
3 46 11 9
3 47 11 9
3 48 14 9
3 49 11 9
4 5 4 0.5
4 6 4 0.5
4 7 11 9
4 8 11 9
4 9 11 9
4 10 11 9
4 11 11 9
4 12 11 9
4 13 11 9
4 14 11 9
4 15 11 9
4 16 11 9
4 17 11 9
4 18 11 9
4 19 11 9
4 20 11 9
4 21 11 9
4 22 11 9
4 23 11 9
4 24 11 9
4 25 11 9
4 26 11 9
4 27 11 9
4 28 11 9
4 29 11 9
4 30 11 9
4 31 11 9
4 32 11 9
4 33 11 9
4 34 11 9
4 35 11 9
4 36 11 9
4 37 11 9
4 38 11 9
4 39 11 9
4 40 11 9
4 41 11 9
4 42 11 9
4 43 11 9
4 44 11 9
4 45 11 9
4 46 11 9
4 47 11 9
4 48 14 9
4 49 11 9
5 6 8 0.5
5 7 11 9
5 8 11 9
5 9 11 9
5 10 11 9
5 11 11 9
5 12 11 9
5 13 11 9
5 14 11 9
5 15 11 9
5 16 11 9
5 17 11 9
5 18 11 9
5 19 11 9
5 20 11 9
5 21 11 9
5 22 11 9
5 23 11 9
5 24 11 9
5 25 11 9
5 26 11 9
5 27 11 9
5 28 11 9
5 29 11 9
5 30 11 9
5 31 11 9
5 32 11 9
5 33 11 9
5 34 11 9
5 35 11 9
5 36 11 9
5 37 11 9
5 38 11 9
5 39 11 9
5 40 11 9
5 41 11 9
5 42 11 9
5 43 11 9
5 44 11 9
5 45 11 9
5 46 11 9
5 47 11 9
5 48 14 9
5 49 11 9
6 7 11 9
6 8 11 9
6 9 11 9
6 10 11 9
6 11 11 9
6 12 11 9
6 13 11 9
6 14 11 9
6 15 11 9
6 16 11 9
6 17 11 9
6 18 11 9
6 19 11 9
6 20 11 9
6 21 11 9
6 22 11 9
6 23 11 9
6 24 11 9
6 25 11 9
6 26 11 9
6 27 11 9
6 28 11 9
6 29 11 9
6 30 11 9
6 31 11 9
6 32 11 9
6 33 11 9
6 34 11 9
6 35 11 9
6 36 11 9
6 37 11 9
6 38 11 9
6 39 11 9
6 40 11 9
6 41 11 9
6 42 11 9
6 43 11 9
6 44 11 9
6 45 11 9
6 46 11 9
6 47 11 9
6 48 14 9
6 49 11 9
7 8 3 0.5
7 9 3 0.5
7 10 3 0.5
7 11 3 0.5
7 12 3 0.5
7 13 11 9
7 14 11 9
7 15 11 9
7 16 11 9
7 17 11 9
7 18 11 9
7 19 11 9
7 20 11 9
7 21 11 9
7 22 11 9
7 23 11 9
7 24 11 9
7 25 11 9
7 26 11 9
7 27 11 9
7 28 11 9
7 29 11 9
7 30 11 9
7 31 11 9
7 32 11 9
7 33 11 9
7 34 11 9
7 35 11 9
7 36 11 9
7 37 11 9
7 38 11 9
7 39 11 9
7 40 11 9
7 41 11 9
7 42 11 9
7 43 5 9
7 44 5 9
7 45 5 9
7 46 5 9
7 47 5 9
7 48 14 9
7 49 5 9
8 9 3 0.5
8 10 3 1
8 11 3 1
8 12 3 1
8 13 11 9
8 14 11 9
8 15 11 9
8 16 11 9
8 17 11 9
8 18 11 9
8 19 11 9
8 20 11 9
8 21 11 9
8 22 11 9
8 23 11 9
8 24 11 9
8 25 11 9
8 26 11 9
8 27 11 9
8 28 11 9
8 29 11 9
8 30 11 9
8 31 11 9
8 32 11 9
8 33 11 9
8 34 11 9
8 35 11 9
8 36 11 9
8 37 11 9
8 38 11 9
8 39 11 9
8 40 11 9
8 41 11 9
8 42 11 9
8 43 7 9
8 44 7 9
8 45 7 9
8 46 7 9
8 47 7 9
8 48 14 9
8 49 7 9
9 10 3 0.5
9 11 3 0.5
9 12 3 0.5
9 13 11 9
9 14 11 9
9 15 11 9
9 16 11 9
9 17 11 9
9 18 11 9
9 19 11 9
9 20 11 9
9 21 11 9
9 22 11 9
9 23 11 9
9 24 11 9
9 25 11 9
9 26 11 9
9 27 11 9
9 28 11 9
9 29 11 9
9 30 11 9
9 31 11 9
9 32 11 9
9 33 11 9
9 34 11 9
9 35 11 9
9 36 11 9
9 37 11 9
9 38 11 9
9 39 11 9
9 40 11 9
9 41 11 9
9 42 11 9
9 43 7 9
9 44 7 9
9 45 7 9
9 46 7 9
9 47 7 9
9 48 14 9
9 49 7 9
10 11 3 0.5
10 12 3 0.5
10 13 11 9
10 14 11 9
10 15 11 9
10 16 11 9
10 17 11 9
10 18 11 9
10 19 11 9
10 20 11 9
10 21 11 9
10 22 11 9
10 23 11 9
10 24 11 9
10 25 11 9
10 26 11 9
10 27 11 9
10 28 11 9
10 29 11 9
10 30 11 9
10 31 11 9
10 32 11 9
10 33 11 9
10 34 11 9
10 35 11 9
10 36 11 9
10 37 11 9
10 38 11 9
10 39 11 9
10 40 11 9
10 41 11 9
10 42 11 9
10 43 7 9
10 44 7 9
10 45 7 9
10 46 7 9
10 47 7 9
10 48 14 9
10 49 7 9
11 12 3 0.5
11 13 11 9
11 14 11 9
11 15 11 9
11 16 11 9
11 17 11 9
11 18 11 9
11 19 11 9
11 20 11 9
11 21 11 9
11 22 11 9
11 23 11 9
11 24 11 9
11 25 11 9
11 26 11 9
11 27 11 9
11 28 11 9
11 29 11 9
11 30 11 9
11 31 11 9
11 32 11 9
11 33 11 9
11 34 11 9
11 35 11 9
11 36 11 9
11 37 11 9
11 38 11 9
11 39 11 9
11 40 11 9
11 41 11 9
11 42 11 9
11 43 7 9
11 44 7 9
11 45 7 9
11 46 7 9
11 47 7 9
11 48 14 9
11 49 7 9
12 13 11 9
12 14 11 9
12 15 11 9
12 16 11 9
12 17 11 9
12 18 11 9
12 19 11 9
12 20 11 9
12 21 11 9
12 22 11 9
12 23 11 9
12 24 11 9
12 25 11 9
12 26 11 9
12 27 11 9
12 28 11 9
12 29 11 9
12 30 11 9
12 31 11 9
12 32 11 9
12 33 11 9
12 34 11 9
12 35 11 9
12 36 11 9
12 37 11 9
12 38 11 9
12 39 11 9
12 40 11 9
12 41 11 9
12 42 11 9
12 43 7 9
12 44 7 9
12 45 7 9
12 46 7 9
12 47 7 9
12 48 14 9
12 49 7 9
13 14 3 0.5
13 15 3 1
13 16 3 1
13 17 3 1
13 18 11 9
13 19 11 9
13 20 11 9
13 21 11 9
13 22 11 9
13 23 11 9
13 24 11 9
13 25 11 9
13 26 11 9
13 27 11 9
13 28 11 9
13 29 11 9
13 30 11 9
13 31 11 9
13 32 11 9
13 33 11 9
13 34 11 9
13 35 11 9
13 36 11 9
13 37 11 9
13 38 11 9
13 39 11 9
13 40 11 9
13 41 11 9
13 42 11 9
13 43 7 9
13 44 7 9
13 45 7 9
13 46 7 9
13 47 7 9
13 48 14 9
13 49 7 9
14 15 3 0.5
14 16 3 1
14 17 3 0.5
14 18 11 9
14 19 11 9
14 20 11 9
14 21 11 9
14 22 11 9
14 23 11 9
14 24 11 9
14 25 11 9
14 26 11 9
14 27 11 9
14 28 11 9
14 29 11 9
14 30 11 9
14 31 11 9
14 32 11 9
14 33 11 9
14 34 11 9
14 35 11 9
14 36 11 9
14 37 11 9
14 38 11 9
14 39 11 9
14 40 11 9
14 41 11 9
14 42 11 9
14 43 7 9
14 44 7 9
14 45 7 9
14 46 7 9
14 47 7 9
14 48 14 9
14 49 7 9
15 16 3 1
15 17 3 1
15 18 11 9
15 19 11 9
15 20 11 9
15 21 11 9
15 22 11 9
15 23 11 9
15 24 11 9
15 25 11 9
15 26 11 9
15 27 11 9
15 28 11 9
15 29 11 9
15 30 11 9
15 31 11 9
15 32 11 9
15 33 11 9
15 34 11 9
15 35 11 9
15 36 11 9
15 37 11 9
15 38 11 9
15 39 11 9
15 40 11 9
15 41 11 9
15 42 11 9
15 43 7 9
15 44 7 9
15 45 7 9
15 46 7 9
15 47 7 9
15 48 14 9
15 49 7 9
16 17 3 1
16 18 11 9
16 19 11 9
16 20 11 9
16 21 11 9
16 22 11 9
16 23 11 9
16 24 11 9
16 25 11 9
16 26 11 9
16 27 11 9
16 28 11 9
16 29 11 9
16 30 11 9
16 31 11 9
16 32 11 9
16 33 11 9
16 34 11 9
16 35 11 9
16 36 11 9
16 37 11 9
16 38 11 9
16 39 11 9
16 40 11 9
16 41 11 9
16 42 11 9
16 43 7 9
16 44 7 9
16 45 7 9
16 46 7 9
16 47 7 9
16 48 14 9
16 49 7 9
17 18 11 9
17 19 11 9
17 20 11 9
17 21 11 9
17 22 11 9
17 23 11 9
17 24 11 9
17 25 11 9
17 26 11 9
17 27 11 9
17 28 11 9
17 29 11 9
17 30 11 9
17 31 11 9
17 32 11 9
17 33 11 9
17 34 11 9
17 35 11 9
17 36 11 9
17 37 11 9
17 38 11 9
17 39 11 9
17 40 11 9
17 41 11 9
17 42 11 9
17 43 7 9
17 44 7 9
17 45 7 9
17 46 7 9
17 47 7 9
17 48 14 9
17 49 7 9
18 19 3 0.5
18 20 3 0.5
18 21 3 1
18 22 3 1
18 23 11 9
18 24 11 9
18 25 11 9
18 26 11 9
18 27 11 9
18 28 11 9
18 29 11 9
18 30 11 9
18 31 11 9
18 32 11 9
18 33 11 9
18 34 11 9
18 35 11 9
18 36 11 9
18 37 11 9
18 38 11 9
18 39 11 9
18 40 11 9
18 41 11 9
18 42 11 9
18 43 7 9
18 44 7 9
18 45 7 9
18 46 7 9
18 47 7 9
18 48 14 9
18 49 7 9
19 20 3 1
19 21 3 1
19 22 3 1
19 23 11 9
19 24 11 9
19 25 11 9
19 26 11 9
19 27 11 9
19 28 11 9
19 29 11 9
19 30 11 9
19 31 11 9
19 32 11 9
19 33 11 9
19 34 11 9
19 35 11 9
19 36 11 9
19 37 11 9
19 38 11 9
19 39 11 9
19 40 11 9
19 41 11 9
19 42 11 9
19 43 7 9
19 44 7 9
19 45 7 9
19 46 7 9
19 47 7 9
19 48 14 9
19 49 7 9
20 21 3 0.5
20 22 3 1
20 23 11 9
20 24 11 9
20 25 11 9
20 26 11 9
20 27 11 9
20 28 11 9
20 29 11 9
20 30 11 9
20 31 11 9
20 32 11 9
20 33 11 9
20 34 11 9
20 35 11 9
20 36 11 9
20 37 11 9
20 38 11 9
20 39 11 9
20 40 11 9
20 41 11 9
20 42 11 9
20 43 7 9
20 44 7 9
20 45 7 9
20 46 7 9
20 47 7 9
20 48 14 9
20 49 7 9
21 22 3 1
21 23 11 9
21 24 11 9
21 25 11 9
21 26 11 9
21 27 11 9
21 28 11 9
21 29 11 9
21 30 11 9
21 31 11 9
21 32 11 9
21 33 11 9
21 34 11 9
21 35 11 9
21 36 11 9
21 37 11 9
21 38 11 9
21 39 11 9
21 40 11 9
21 41 11 9
21 42 11 9
21 43 7 9
21 44 7 9
21 45 7 9
21 46 7 9
21 47 7 9
21 48 14 9
21 49 7 9
22 23 11 9
22 24 11 9
22 25 11 9
22 26 11 9
22 27 11 9
22 28 11 9
22 29 11 9
22 30 11 9
22 31 11 9
22 32 11 9
22 33 11 9
22 34 11 9
22 35 11 9
22 36 11 9
22 37 11 9
22 38 11 9
22 39 11 9
22 40 11 9
22 41 11 9
22 42 11 9
22 43 7 9
22 44 7 9
22 45 7 9
22 46 7 9
22 47 7 9
22 48 14 9
22 49 7 9
23 24 3 0.5
23 25 3 1
23 26 3 1
23 27 3 1
23 28 11 9
23 29 11 9
23 30 11 9
23 31 11 9
23 32 11 9
23 33 11 9
23 34 11 9
23 35 11 9
23 36 11 9
23 37 11 9
23 38 11 9
23 39 11 9
23 40 11 9
23 41 11 9
23 42 11 9
23 43 7 9
23 44 7 9
23 45 7 9
23 46 7 9
23 47 7 9
23 48 14 9
23 49 7 9
24 25 3 1
24 26 3 1
24 27 3 1
24 28 11 9
24 29 11 9
24 30 11 9
24 31 11 9
24 32 11 9
24 33 11 9
24 34 11 9
24 35 11 9
24 36 11 9
24 37 11 9
24 38 11 9
24 39 11 9
24 40 11 9
24 41 11 9
24 42 11 9
24 43 7 9
24 44 7 9
24 45 7 9
24 46 7 9
24 47 7 9
24 48 14 9
24 49 7 9
25 26 3 1
25 27 3 1
25 28 11 9
25 29 11 9
25 30 11 9
25 31 11 9
25 32 11 9
25 33 11 9
25 34 11 9
25 35 11 9
25 36 11 9
25 37 11 9
25 38 11 9
25 39 11 9
25 40 11 9
25 41 11 9
25 42 11 9
25 43 11 9
25 44 11 9
25 45 11 9
25 46 11 9
25 47 11 9
25 48 14 9
25 49 11 9
26 27 3 0.5
26 28 11 9
26 29 11 9
26 30 11 9
26 31 11 9
26 32 11 9
26 33 11 9
26 34 11 9
26 35 11 9
26 36 11 9
26 37 11 9
26 38 11 9
26 39 11 9
26 40 11 9
26 41 11 9
26 42 11 9
26 43 7 9
26 44 7 9
26 45 7 9
26 46 7 9
26 47 7 9
26 48 14 9
26 49 7 9
27 28 11 9
27 29 11 9
27 30 11 9
27 31 11 9
27 32 11 9
27 33 11 9
27 34 11 9
27 35 11 9
27 36 11 9
27 37 11 9
27 38 11 9
27 39 11 9
27 40 11 9
27 41 11 9
27 42 11 9
27 43 7 9
27 44 7 9
27 45 7 9
27 46 7 9
27 47 7 9
27 48 14 9
27 49 7 9
28 29 1 2
28 30 0 1
28 31 1 0.500
28 32 1 0.500
28 33 10 10
28 34 0.235 9
28 35 1 9
28 36 1 9
28 37 0.250 9
28 38 2 9
28 39 3 8.50
28 40 2 9
28 41 1 9
28 42 20 10
28 43 7 9
28 44 7 9
28 45 7 9
28 46 7 9
28 47 7 9
28 48 14 9
28 49 7 9
29 30 0 0.500
29 31 0 0.500
29 32 1 1
29 33 0.250 9.5
29 34 99 11
29 35 0.120 8.5
29 36 1 9.5
29 37 3 9.5
29 38 1 9.5
29 39 1 10
29 40 0.250 10
29 41 11 12
29 42 11 12
29 43 11 9.5
29 44 10 9.1
29 45 12 9.1
29 46 7 9.3
29 47 0.023 7
29 48 14 9
29 49 0.025 8
30 31 0 0.500
30 32 0 0.500
30 33 0.025 9
30 34 0.025 10
30 35 0 9
30 36 0.1 10
30 37 2 12
30 38 3 12
30 39 0.230 7.5
30 40 0.230 7.5
30 41 0.230 7.5
30 42 0.230 7.5
30 43 7 9
30 44 7 9
30 45 7 9
30 46 7 9
30 47 7 9
30 48 14 9
30 49 7 9
31 32 1 1
31 33 14 9.5
31 34 15 9.5
31 35 0.5 10
31 36 0.25 12
31 37 0.25 12
31 38 0.25 12
31 39 0.25 12
31 40 0.25 12
31 41 0.25 12
31 42 0.25 12
31 43 2 8.5
31 44 2 8.5
31 45 2 8.5
31 46 2 8.5
31 47 2 8.5
31 48 14 9
31 49 2 8.5
32 33 2 8.5
32 34 2 8.5
32 35 2 8.5
32 36 3 8.90
32 37 3 8.90
32 38 3 8.90
32 39 3 8.90
32 40 3 8.90
32 41 3 8.90
32 42 3 8.90
32 43 7 9
32 44 7 9
32 45 7 9
32 46 7 9
32 47 7 9
32 48 14 9
32 49 7 9
33 34 0 0.500
33 35 0 0.500
33 36 1 0.500
33 37 1 0.500
33 38 1 8.79
33 39 1 8.79
33 40 1 8.79
33 41 1 8.79
33 42 1 8.79
33 43 1 8.79
33 44 1 8.79
33 45 1 8.79
33 46 1 8.79
33 47 1 8.79
33 48 14 9
33 49 0 9.5
34 35 0 0.500
34 36 0 1
34 37 1 0.500
34 38 0.569 8.50
34 39 0.569 8.50
34 40 0.569 8.50
34 41 0.569 8.50
34 42 0.569 8.50
34 43 7 9
34 44 7 9
34 45 7 9
34 46 7 9
34 47 7 9
34 48 7 9
34 49 7 9
35 36 0 0.500
35 37 0 0.500
35 38 0.569 8.50
35 39 0.569 8.50
35 40 0.569 8.50
35 41 0.569 8.50
35 42 0.569 8.50
35 43 7 9
35 44 7 9
35 45 7 9
35 46 7 9
35 47 7 9
35 48 14 9
35 49 7 9
36 37 0 2
36 38 89 9.1
36 39 89 9.1
36 40 89 9.1
36 41 89 9.1
36 42 89 9.1
36 43 7 9
36 44 7 9
36 45 7 9
36 46 7 9
36 47 7 9
36 48 14 9
36 49 7 9
37 38 89 9.1
37 39 89 9.1
37 40 89 9.1
37 41 89 9.1
37 42 89 9.1
37 43 7 9
37 44 7 9
37 45 7 9
37 46 7 9
37 47 7 9
37 48 14 9
37 49 7 9
38 39 0 0.500
38 40 0 0.500
38 41 1 0.500
38 42 1 0.500
38 43 7 9
38 44 7 9
38 45 7 9
38 46 7 9
38 47 7 9
38 48 14 9
38 49 7 9
39 40 0 0.500
39 41 0.500 0.500
39 42 0 1
39 43 7 9
39 44 7 9
39 45 7 9
39 46 7 9
39 47 7 9
39 48 14 9
39 49 7 9
40 41 0 0.500
40 42 0.500 0.500
40 43 7 9
40 44 7 9
40 45 7 9
40 46 7 9
40 47 7 9
40 48 14 9
40 49 7 9
41 42 0.250 2
41 43 7 9
41 44 7 9
41 45 7 9
41 46 7 9
41 47 7 9
41 48 14 9
41 49 7 9
42 43 7 9
42 44 7 9
42 45 7 9
42 46 7 9
42 47 7 9
42 48 14 9
42 49 7 9
43 44 5 0.5
43 45 5 1
43 46 5 1
43 47 5 1
43 48 14 9
43 49 7 9
44 45 5 1
44 46 5 1
44 47 5 0.5
44 48 14 9
44 49 7 9
45 46 5 0.5
45 47 5 0.5
45 48 14 9
45 49 7 9
46 47 5 2
46 48 14 9
46 49 7 9
47 48 14 9
47 49 7 9
48 49 20 9